NAME: instance_1048
TYPE: TSP
DIMENSION: 20
EDGE_WEIGHT_TYPE: EUC_2D
NODE_COORD_SECTION
0 68.60 92.23
1 30.94 86.78
2 96.90 39.51
3 55.49 75.70
4 9.70 83.43
5 31.83 31.17
6 50.63 36.50
7 56.72 63.75
8 33.40 15.44
9 30.33 27.82
10 8.96 96.48
11 62.40 85.45
12 81.54 47.73
13 62.35 82.70
14 2.60 9.40
15 12.84 5.31
16 35.90 40.11
17 29.04 64.59
18 3.17 33.47
19 8.55 61.23
EOF
